NAME : XML100_3163_17
DIMENSION : 101
NB_CLUSTERS : 31
CLUSTERING_ALG : DBSCAN
CLUSTERING_PARAMS : eps(47), minSamples(3)
CLUSTERS
1 0
2 4 5 18 29
3 17 38 50 82 90 93
4 27 31 41 59 60
5 36 87 96
6 2 55 66
7 10 16 89 91 95 97
8 1 44 69 81
9 33 74
10 61 80
11 34 47 63 71
12 13 45 73
13 70 75
14 21 26 43 94
15 52 62 68
16 12 22 24 35 64
17 37 48
18 9 83
19 3 20 32 54 57 65
20 7 23 28 42 56 72 92
21 78 79
22 51 77
23 6 46 88
24 40 84
25 8 15 30
26 19 49 58
27 14 100
28 11 25 76
29 85 86
30 39 53 67
31 98 99
EOF